c File: flat50_3_0.col
c
c SOURCE: Joseph Culberson (joe@cs.ualberta.ca)
c DESCRIPTION: Quasi-random coloring problem
c              generated with flatness = 0
c                             probability = 0.139
c                             known coloring = 3
c                             random seed = 1664
c              Creation Date:  Tue Jun  9 12:14:51 1998
c Maximum degree = 8 Minimum degree = 0
c p edge 50 115
c cnf created by edge2cnf
p cnf 150 545
-1 -2 0
-1 -3 0
-2 -3 0
1 2 3 0
-4 -5 0
-4 -6 0
-5 -6 0
4 5 6 0
-7 -8 0
-7 -9 0
-8 -9 0
7 8 9 0
-10 -11 0
-10 -12 0
-11 -12 0
10 11 12 0
-13 -14 0
-13 -15 0
-14 -15 0
13 14 15 0
-16 -17 0
-16 -18 0
-17 -18 0
16 17 18 0
-19 -20 0
-19 -21 0
-20 -21 0
19 20 21 0
-22 -23 0
-22 -24 0
-23 -24 0
22 23 24 0
-25 -26 0
-25 -27 0
-26 -27 0
25 26 27 0
-28 -29 0
-28 -30 0
-29 -30 0
28 29 30 0
-31 -32 0
-31 -33 0
-32 -33 0
31 32 33 0
-34 -35 0
-34 -36 0
-35 -36 0
34 35 36 0
-37 -38 0
-37 -39 0
-38 -39 0
37 38 39 0
-40 -41 0
-40 -42 0
-41 -42 0
40 41 42 0
-43 -44 0
-43 -45 0
-44 -45 0
43 44 45 0
-46 -47 0
-46 -48 0
-47 -48 0
46 47 48 0
-49 -50 0
-49 -51 0
-50 -51 0
49 50 51 0
-52 -53 0
-52 -54 0
-53 -54 0
52 53 54 0
-55 -56 0
-55 -57 0
-56 -57 0
55 56 57 0
-58 -59 0
-58 -60 0
-59 -60 0
58 59 60 0
-61 -62 0
-61 -63 0
-62 -63 0
61 62 63 0
-64 -65 0
-64 -66 0
-65 -66 0
64 65 66 0
-67 -68 0
-67 -69 0
-68 -69 0
67 68 69 0
-70 -71 0
-70 -72 0
-71 -72 0
70 71 72 0
-73 -74 0
-73 -75 0
-74 -75 0
73 74 75 0
-76 -77 0
-76 -78 0
-77 -78 0
76 77 78 0
-79 -80 0
-79 -81 0
-80 -81 0
79 80 81 0
-82 -83 0
-82 -84 0
-83 -84 0
82 83 84 0
-85 -86 0
-85 -87 0
-86 -87 0
85 86 87 0
-88 -89 0
-88 -90 0
-89 -90 0
88 89 90 0
-91 -92 0
-91 -93 0
-92 -93 0
91 92 93 0
-94 -95 0
-94 -96 0
-95 -96 0
94 95 96 0
-97 -98 0
-97 -99 0
-98 -99 0
97 98 99 0
-100 -101 0
-100 -102 0
-101 -102 0
100 101 102 0
-103 -104 0
-103 -105 0
-104 -105 0
103 104 105 0
-106 -107 0
-106 -108 0
-107 -108 0
106 107 108 0
-109 -110 0
-109 -111 0
-110 -111 0
109 110 111 0
-112 -113 0
-112 -114 0
-113 -114 0
112 113 114 0
-115 -116 0
-115 -117 0
-116 -117 0
115 116 117 0
-118 -119 0
-118 -120 0
-119 -120 0
118 119 120 0
-121 -122 0
-121 -123 0
-122 -123 0
121 122 123 0
-124 -125 0
-124 -126 0
-125 -126 0
124 125 126 0
-127 -128 0
-127 -129 0
-128 -129 0
127 128 129 0
-130 -131 0
-130 -132 0
-131 -132 0
130 131 132 0
-133 -134 0
-133 -135 0
-134 -135 0
133 134 135 0
-136 -137 0
-136 -138 0
-137 -138 0
136 137 138 0
-139 -140 0
-139 -141 0
-140 -141 0
139 140 141 0
-142 -143 0
-142 -144 0
-143 -144 0
142 143 144 0
-145 -146 0
-145 -147 0
-146 -147 0
145 146 147 0
-148 -149 0
-148 -150 0
-149 -150 0
148 149 150 0
-82 -1 0
-83 -2 0
-84 -3 0
-88 -1 0
-89 -2 0
-90 -3 0
-106 -1 0
-107 -2 0
-108 -3 0
-121 -1 0
-122 -2 0
-123 -3 0
-127 -1 0
-128 -2 0
-129 -3 0
-52 -4 0
-53 -5 0
-54 -6 0
-91 -4 0
-92 -5 0
-93 -6 0
-94 -4 0
-95 -5 0
-96 -6 0
-97 -4 0
-98 -5 0
-99 -6 0
-103 -4 0
-104 -5 0
-105 -6 0
-118 -4 0
-119 -5 0
-120 -6 0
-124 -4 0
-125 -5 0
-126 -6 0
-88 -7 0
-89 -8 0
-90 -9 0
-130 -7 0
-131 -8 0
-132 -9 0
-136 -7 0
-137 -8 0
-138 -9 0
-148 -7 0
-149 -8 0
-150 -9 0
-100 -10 0
-101 -11 0
-102 -12 0
-109 -10 0
-110 -11 0
-111 -12 0
-112 -10 0
-113 -11 0
-114 -12 0
-118 -10 0
-119 -11 0
-120 -12 0
-121 -10 0
-122 -11 0
-123 -12 0
-61 -13 0
-62 -14 0
-63 -15 0
-106 -13 0
-107 -14 0
-108 -15 0
-58 -16 0
-59 -17 0
-60 -18 0
-73 -16 0
-74 -17 0
-75 -18 0
-115 -16 0
-116 -17 0
-117 -18 0
-79 -19 0
-80 -20 0
-81 -21 0
-142 -19 0
-143 -20 0
-144 -21 0
-82 -22 0
-83 -23 0
-84 -24 0
-85 -22 0
-86 -23 0
-87 -24 0
-88 -22 0
-89 -23 0
-90 -24 0
-139 -22 0
-140 -23 0
-141 -24 0
-70 -25 0
-71 -26 0
-72 -27 0
-97 -25 0
-98 -26 0
-99 -27 0
-112 -25 0
-113 -26 0
-114 -27 0
-124 -25 0
-125 -26 0
-126 -27 0
-148 -25 0
-149 -26 0
-150 -27 0
-52 -28 0
-53 -29 0
-54 -30 0
-73 -28 0
-74 -29 0
-75 -30 0
-112 -28 0
-113 -29 0
-114 -30 0
-118 -28 0
-119 -29 0
-120 -30 0
-136 -28 0
-137 -29 0
-138 -30 0
-139 -28 0
-140 -29 0
-141 -30 0
-61 -31 0
-62 -32 0
-63 -33 0
-85 -31 0
-86 -32 0
-87 -33 0
-100 -31 0
-101 -32 0
-102 -33 0
-142 -31 0
-143 -32 0
-144 -33 0
-52 -34 0
-53 -35 0
-54 -36 0
-55 -34 0
-56 -35 0
-57 -36 0
-58 -34 0
-59 -35 0
-60 -36 0
-64 -34 0
-65 -35 0
-66 -36 0
-103 -34 0
-104 -35 0
-105 -36 0
-106 -34 0
-107 -35 0
-108 -36 0
-58 -37 0
-59 -38 0
-60 -39 0
-67 -37 0
-68 -38 0
-69 -39 0
-91 -37 0
-92 -38 0
-93 -39 0
-100 -37 0
-101 -38 0
-102 -39 0
-58 -40 0
-59 -41 0
-60 -42 0
-61 -40 0
-62 -41 0
-63 -42 0
-70 -40 0
-71 -41 0
-72 -42 0
-94 -40 0
-95 -41 0
-96 -42 0
-106 -40 0
-107 -41 0
-108 -42 0
-127 -40 0
-128 -41 0
-129 -42 0
-130 -40 0
-131 -41 0
-132 -42 0
-148 -40 0
-149 -41 0
-150 -42 0
-55 -43 0
-56 -44 0
-57 -45 0
-61 -43 0
-62 -44 0
-63 -45 0
-64 -43 0
-65 -44 0
-66 -45 0
-94 -43 0
-95 -44 0
-96 -45 0
-121 -43 0
-122 -44 0
-123 -45 0
-145 -43 0
-146 -44 0
-147 -45 0
-64 -46 0
-65 -47 0
-66 -48 0
-91 -46 0
-92 -47 0
-93 -48 0
-112 -46 0
-113 -47 0
-114 -48 0
-121 -46 0
-122 -47 0
-123 -48 0
-136 -46 0
-137 -47 0
-138 -48 0
-145 -46 0
-146 -47 0
-147 -48 0
-109 -52 0
-110 -53 0
-111 -54 0
-127 -52 0
-128 -53 0
-129 -54 0
-121 -55 0
-122 -56 0
-123 -57 0
-139 -55 0
-140 -56 0
-141 -57 0
-145 -55 0
-146 -56 0
-147 -57 0
-148 -55 0
-149 -56 0
-150 -57 0
-127 -61 0
-128 -62 0
-129 -63 0
-109 -64 0
-110 -65 0
-111 -66 0
-115 -64 0
-116 -65 0
-117 -66 0
-124 -64 0
-125 -65 0
-126 -66 0
-112 -67 0
-113 -68 0
-114 -69 0
-136 -67 0
-137 -68 0
-138 -69 0
-103 -70 0
-104 -71 0
-105 -72 0
-112 -73 0
-113 -74 0
-114 -75 0
-121 -73 0
-122 -74 0
-123 -75 0
-127 -73 0
-128 -74 0
-129 -75 0
-130 -73 0
-131 -74 0
-132 -75 0
-121 -76 0
-122 -77 0
-123 -78 0
-145 -76 0
-146 -77 0
-147 -78 0
-103 -79 0
-104 -80 0
-105 -81 0
-112 -79 0
-113 -80 0
-114 -81 0
-133 -79 0
-134 -80 0
-135 -81 0
-106 -82 0
-107 -83 0
-108 -84 0
-133 -82 0
-134 -83 0
-135 -84 0
-136 -82 0
-137 -83 0
-138 -84 0
-148 -82 0
-149 -83 0
-150 -84 0
-118 -85 0
-119 -86 0
-120 -87 0
-109 -88 0
-110 -89 0
-111 -90 0
-118 -91 0
-119 -92 0
-120 -93 0
-130 -91 0
-131 -92 0
-132 -93 0
-145 -91 0
-146 -92 0
-147 -93 0
-118 -94 0
-119 -95 0
-120 -96 0
-127 -94 0
-128 -95 0
-129 -96 0
-145 -97 0
-146 -98 0
-147 -99 0
-109 -100 0
-110 -101 0
-111 -102 0
-112 -100 0
-113 -101 0
-114 -102 0
-118 -100 0
-119 -101 0
-120 -102 0
-124 -100 0
-125 -101 0
-126 -102 0
